1963
3287
1350
3369
562
3909
3211
2285
3256
941
823
2883
1893
229
2230
1073
1810
1621
271
3044
1786
2332
909
2804
815
3743
3040
973
3110
2524
1241
1677
1915
2072
3363
176
780
1315
3249
3666
3732
400
1907
2396
2975
1671
3672
2766
3059
2191
2583
2953
750
700
782
263
3990
2488
3886
1450
940
1514
3065
1866
3824
3181
2106
2467
862
859
3171
1728
2403
3294
3312
1630
2649
4259
4271
1981
2274
704
3227
2287
459
3601
832
1408
1192
4103
1269
155
1922
2690
1814
3359
813
3866
3165
1427
